H8
1.0
  15.0000000000000000    0.0000000000000000    0.0000000000000009
   0.0000000000000024   15.0000000000000000    0.0000000000000009
   0.0000000000000000    0.0000000000000000   21.6000000000000014
H
8
direct
   0.0000000000000000    0.0000000000000000    0.0000000000000000 H
   0.0000000000000000    0.0000000000000000    0.1250000000000000 H
   0.0000000000000000    0.0000000000000000    0.2500000000000000 H
   0.0000000000000000    0.0000000000000000    0.3750000000000001 H
   0.0000000000000000    0.0000000000000000    0.5000000000000000 H
   0.0000000000000000    0.0000000000000000    0.6250000000000000 H
   0.0000000000000000    0.0000000000000000    0.7500000000000001 H
   0.0000000000000000    0.0000000000000000    0.8750000000000000 H
