H8
1.0
  15.0000000000000000    0.0000000000000000    0.0000000000000009
   0.0000000000000024   15.0000000000000000    0.0000000000000009
   0.0000000000000000    0.0000000000000000   22.3999999999999986
H
8
direct
   0.0000000000000000    0.0000000000000000    0.0000000000000000 H
   0.0000000000000000    0.0000000000000000    0.1250000000000000 H
   0.0000000000000000    0.0000000000000000    0.2500000000000000 H
   0.0000000000000000    0.0000000000000000    0.3749999999999999 H
   0.0000000000000000    0.0000000000000000    0.5000000000000000 H
   0.0000000000000000    0.0000000000000000    0.6250000000000000 H
   0.0000000000000000    0.0000000000000000    0.7499999999999999 H
   0.0000000000000000    0.0000000000000000    0.8749999999999999 H
