EDIFF = 1e-06
ENCUT = 300.0
ICHARG = 2
ISMEAR = 0
ISPIN = 2
LCHARG = False
LWAVE = False
NELM = 100
NSW = 0
NUPDOWN = 0
SIGMA = 0.2
