EDIFF = 1e-06
ENCUT = 400.0
IBRION = 2
ISIF = 3
ISMEAR = 0
LCHARG = False
LWAVE = False
NSW = 50
SIGMA = 0.01
