pymatgen with grid density = 1000 / number of atoms
0
Gamma
3 5 5
