H8
1.0
  16.0000000000000000    0.0000000000000000    0.0000000000000010
   0.0000000000000016   10.0000000000000000    0.0000000000000006
   0.0000000000000000    0.0000000000000000   10.0000000000000000
H
8
direct
   0.0000000000000000    0.5000000000000000    0.5000000000000000 H
   0.1250000000000000    0.5000000000000000    0.5000000000000000 H
   0.2500000000000000    0.5000000000000000    0.5000000000000000 H
   0.3750000000000000    0.5000000000000000    0.5000000000000000 H
   0.5000000000000000    0.5000000000000000    0.5000000000000000 H
   0.6250000000000000    0.5000000000000000    0.5000000000000000 H
   0.7500000000000000    0.5000000000000000    0.5000000000000000 H
   0.8750000000000000    0.5000000000000000    0.5000000000000000 H
